c File:  hole2.cnf
c
c DESCRIPTION: Pigeon hole problem of placing n (for file holen) pigeons
c              in n+1 holes without placing 2 pigeons in the same hole
c
c NOTE: Not satisfiable
c
p cnf 6 9
-1     -3    0
-1     -5    0
-3     -5    0
-2     -4    0
-2     -6    0
-4     -6    0
 2      1    0
 4      3    0
 6      5    0 